p knf 793 1431
-79 2 5 0
-79 -2 -5 0
-80 2 8 0
-80 -2 -8 0
-81 2 12 0
-81 -2 -12 0
-82 2 17 0
-82 -2 -17 0
-83 2 23 0
-83 -2 -23 0
-84 2 30 0
-84 -2 -30 0
-85 2 38 0
-85 -2 -38 0
-86 2 47 0
-86 -2 -47 0
-87 2 57 0
-87 -2 -57 0
-88 2 68 0
-88 -2 -68 0
-89 4 8 0
-89 -4 -8 0
-90 4 12 0
-90 -4 -12 0
-91 4 17 0
-91 -4 -17 0
-92 4 23 0
-92 -4 -23 0
-93 4 30 0
-93 -4 -30 0
-94 4 38 0
-94 -4 -38 0
-95 4 47 0
-95 -4 -47 0
-96 4 57 0
-96 -4 -57 0
-97 4 68 0
-97 -4 -68 0
-98 7 12 0
-98 -7 -12 0
-99 7 17 0
-99 -7 -17 0
-100 7 23 0
-100 -7 -23 0
-101 7 30 0
-101 -7 -30 0
-102 7 38 0
-102 -7 -38 0
-103 7 47 0
-103 -7 -47 0
-104 7 57 0
-104 -7 -57 0
-105 7 68 0
-105 -7 -68 0
-106 11 17 0
-106 -11 -17 0
-107 11 23 0
-107 -11 -23 0
-108 11 30 0
-108 -11 -30 0
-109 11 38 0
-109 -11 -38 0
-110 11 47 0
-110 -11 -47 0
-111 11 57 0
-111 -11 -57 0
-112 11 68 0
-112 -11 -68 0
-113 16 23 0
-113 -16 -23 0
-114 16 30 0
-114 -16 -30 0
-115 16 38 0
-115 -16 -38 0
-116 16 47 0
-116 -16 -47 0
-117 16 57 0
-117 -16 -57 0
-118 16 68 0
-118 -16 -68 0
-119 22 30 0
-119 -22 -30 0
-120 22 38 0
-120 -22 -38 0
-121 22 47 0
-121 -22 -47 0
-122 22 57 0
-122 -22 -57 0
-123 22 68 0
-123 -22 -68 0
-124 29 38 0
-124 -29 -38 0
-125 29 47 0
-125 -29 -47 0
-126 29 57 0
-126 -29 -57 0
-127 29 68 0
-127 -29 -68 0
-128 37 47 0
-128 -37 -47 0
-129 37 57 0
-129 -37 -57 0
-130 37 68 0
-130 -37 -68 0
-131 46 57 0
-131 -46 -57 0
-132 46 68 0
-132 -46 -68 0
-133 56 68 0
-133 -56 -68 0
-134 4 9 0
-134 -4 -9 0
-135 4 13 0
-135 -4 -13 0
-136 4 18 0
-136 -4 -18 0
-137 4 24 0
-137 -4 -24 0
-138 4 31 0
-138 -4 -31 0
-139 4 39 0
-139 -4 -39 0
-140 4 48 0
-140 -4 -48 0
-141 4 58 0
-141 -4 -58 0
-142 4 69 0
-142 -4 -69 0
-143 7 13 0
-143 -7 -13 0
-144 7 18 0
-144 -7 -18 0
-145 7 24 0
-145 -7 -24 0
-146 7 31 0
-146 -7 -31 0
-147 7 39 0
-147 -7 -39 0
-148 7 48 0
-148 -7 -48 0
-149 7 58 0
-149 -7 -58 0
-150 7 69 0
-150 -7 -69 0
-151 11 18 0
-151 -11 -18 0
-152 11 24 0
-152 -11 -24 0
-153 11 31 0
-153 -11 -31 0
-154 11 39 0
-154 -11 -39 0
-155 11 48 0
-155 -11 -48 0
-156 11 58 0
-156 -11 -58 0
-157 11 69 0
-157 -11 -69 0
-158 16 24 0
-158 -16 -24 0
-159 16 31 0
-159 -16 -31 0
-160 16 39 0
-160 -16 -39 0
-161 16 48 0
-161 -16 -48 0
-162 16 58 0
-162 -16 -58 0
-163 16 69 0
-163 -16 -69 0
-164 22 31 0
-164 -22 -31 0
-165 22 39 0
-165 -22 -39 0
-166 22 48 0
-166 -22 -48 0
-167 22 58 0
-167 -22 -58 0
-168 22 69 0
-168 -22 -69 0
-169 29 39 0
-169 -29 -39 0
-170 29 48 0
-170 -29 -48 0
-171 29 58 0
-171 -29 -58 0
-172 29 69 0
-172 -29 -69 0
-173 37 48 0
-173 -37 -48 0
-174 37 58 0
-174 -37 -58 0
-175 37 69 0
-175 -37 -69 0
-176 46 58 0
-176 -46 -58 0
-177 46 69 0
-177 -46 -69 0
-178 56 69 0
-178 -56 -69 0
-179 7 14 0
-179 -7 -14 0
-180 7 19 0
-180 -7 -19 0
-181 7 25 0
-181 -7 -25 0
-182 7 32 0
-182 -7 -32 0
-183 7 40 0
-183 -7 -40 0
-184 7 49 0
-184 -7 -49 0
-185 7 59 0
-185 -7 -59 0
-186 7 70 0
-186 -7 -70 0
-187 11 19 0
-187 -11 -19 0
-188 11 25 0
-188 -11 -25 0
-189 11 32 0
-189 -11 -32 0
-190 11 40 0
-190 -11 -40 0
-191 11 49 0
-191 -11 -49 0
-192 11 59 0
-192 -11 -59 0
-193 11 70 0
-193 -11 -70 0
-194 16 25 0
-194 -16 -25 0
-195 16 32 0
-195 -16 -32 0
-196 16 40 0
-196 -16 -40 0
-197 16 49 0
-197 -16 -49 0
-198 16 59 0
-198 -16 -59 0
-199 16 70 0
-199 -16 -70 0
-200 22 32 0
-200 -22 -32 0
-201 22 40 0
-201 -22 -40 0
-202 22 49 0
-202 -22 -49 0
-203 22 59 0
-203 -22 -59 0
-204 22 70 0
-204 -22 -70 0
-205 29 40 0
-205 -29 -40 0
-206 29 49 0
-206 -29 -49 0
-207 29 59 0
-207 -29 -59 0
-208 29 70 0
-208 -29 -70 0
-209 37 49 0
-209 -37 -49 0
-210 37 59 0
-210 -37 -59 0
-211 37 70 0
-211 -37 -70 0
-212 46 59 0
-212 -46 -59 0
-213 46 70 0
-213 -46 -70 0
-214 56 70 0
-214 -56 -70 0
-215 11 20 0
-215 -11 -20 0
-216 11 26 0
-216 -11 -26 0
-217 11 33 0
-217 -11 -33 0
-218 11 41 0
-218 -11 -41 0
-219 11 50 0
-219 -11 -50 0
-220 11 60 0
-220 -11 -60 0
-221 11 71 0
-221 -11 -71 0
-222 16 26 0
-222 -16 -26 0
-223 16 33 0
-223 -16 -33 0
-224 16 41 0
-224 -16 -41 0
-225 16 50 0
-225 -16 -50 0
-226 16 60 0
-226 -16 -60 0
-227 16 71 0
-227 -16 -71 0
-228 22 33 0
-228 -22 -33 0
-229 22 41 0
-229 -22 -41 0
-230 22 50 0
-230 -22 -50 0
-231 22 60 0
-231 -22 -60 0
-232 22 71 0
-232 -22 -71 0
-233 29 41 0
-233 -29 -41 0
-234 29 50 0
-234 -29 -50 0
-235 29 60 0
-235 -29 -60 0
-236 29 71 0
-236 -29 -71 0
-237 37 50 0
-237 -37 -50 0
-238 37 60 0
-238 -37 -60 0
-239 37 71 0
-239 -37 -71 0
-240 46 60 0
-240 -46 -60 0
-241 46 71 0
-241 -46 -71 0
-242 56 71 0
-242 -56 -71 0
-243 16 27 0
-243 -16 -27 0
-244 16 34 0
-244 -16 -34 0
-245 16 42 0
-245 -16 -42 0
-246 16 51 0
-246 -16 -51 0
-247 16 61 0
-247 -16 -61 0
-248 16 72 0
-248 -16 -72 0
-249 22 34 0
-249 -22 -34 0
-250 22 42 0
-250 -22 -42 0
-251 22 51 0
-251 -22 -51 0
-252 22 61 0
-252 -22 -61 0
-253 22 72 0
-253 -22 -72 0
-254 29 42 0
-254 -29 -42 0
-255 29 51 0
-255 -29 -51 0
-256 29 61 0
-256 -29 -61 0
-257 29 72 0
-257 -29 -72 0
-258 37 51 0
-258 -37 -51 0
-259 37 61 0
-259 -37 -61 0
-260 37 72 0
-260 -37 -72 0
-261 46 61 0
-261 -46 -61 0
-262 46 72 0
-262 -46 -72 0
-263 56 72 0
-263 -56 -72 0
-264 22 35 0
-264 -22 -35 0
-265 22 43 0
-265 -22 -43 0
-266 22 52 0
-266 -22 -52 0
-267 22 62 0
-267 -22 -62 0
-268 22 73 0
-268 -22 -73 0
-269 29 43 0
-269 -29 -43 0
-270 29 52 0
-270 -29 -52 0
-271 29 62 0
-271 -29 -62 0
-272 29 73 0
-272 -29 -73 0
-273 37 52 0
-273 -37 -52 0
-274 37 62 0
-274 -37 -62 0
-275 37 73 0
-275 -37 -73 0
-276 46 62 0
-276 -46 -62 0
-277 46 73 0
-277 -46 -73 0
-278 56 73 0
-278 -56 -73 0
-279 29 44 0
-279 -29 -44 0
-280 29 53 0
-280 -29 -53 0
-281 29 63 0
-281 -29 -63 0
-282 29 74 0
-282 -29 -74 0
-283 37 53 0
-283 -37 -53 0
-284 37 63 0
-284 -37 -63 0
-285 37 74 0
-285 -37 -74 0
-286 46 63 0
-286 -46 -63 0
-287 46 74 0
-287 -46 -74 0
-288 56 74 0
-288 -56 -74 0
-289 37 54 0
-289 -37 -54 0
-290 37 64 0
-290 -37 -64 0
-291 37 75 0
-291 -37 -75 0
-292 46 64 0
-292 -46 -64 0
-293 46 75 0
-293 -46 -75 0
-294 56 75 0
-294 -56 -75 0
-295 46 65 0
-295 -46 -65 0
-296 46 76 0
-296 -46 -76 0
-297 56 76 0
-297 -56 -76 0
-298 56 77 0
-298 -56 -77 0
-299 5 9 0
-299 -5 -9 0
-300 5 13 0
-300 -5 -13 0
-301 5 18 0
-301 -5 -18 0
-302 5 24 0
-302 -5 -24 0
-303 5 31 0
-303 -5 -31 0
-304 5 39 0
-304 -5 -39 0
-305 5 48 0
-305 -5 -48 0
-306 5 58 0
-306 -5 -58 0
-307 5 69 0
-307 -5 -69 0
-308 8 13 0
-308 -8 -13 0
-309 8 18 0
-309 -8 -18 0
-310 8 24 0
-310 -8 -24 0
-311 8 31 0
-311 -8 -31 0
-312 8 39 0
-312 -8 -39 0
-313 8 48 0
-313 -8 -48 0
-314 8 58 0
-314 -8 -58 0
-315 8 69 0
-315 -8 -69 0
-316 12 18 0
-316 -12 -18 0
-317 12 24 0
-317 -12 -24 0
-318 12 31 0
-318 -12 -31 0
-319 12 39 0
-319 -12 -39 0
-320 12 48 0
-320 -12 -48 0
-321 12 58 0
-321 -12 -58 0
-322 12 69 0
-322 -12 -69 0
-323 17 24 0
-323 -17 -24 0
-324 17 31 0
-324 -17 -31 0
-325 17 39 0
-325 -17 -39 0
-326 17 48 0
-326 -17 -48 0
-327 17 58 0
-327 -17 -58 0
-328 17 69 0
-328 -17 -69 0
-329 23 31 0
-329 -23 -31 0
-330 23 39 0
-330 -23 -39 0
-331 23 48 0
-331 -23 -48 0
-332 23 58 0
-332 -23 -58 0
-333 23 69 0
-333 -23 -69 0
-334 30 39 0
-334 -30 -39 0
-335 30 48 0
-335 -30 -48 0
-336 30 58 0
-336 -30 -58 0
-337 30 69 0
-337 -30 -69 0
-338 38 48 0
-338 -38 -48 0
-339 38 58 0
-339 -38 -58 0
-340 38 69 0
-340 -38 -69 0
-341 47 58 0
-341 -47 -58 0
-342 47 69 0
-342 -47 -69 0
-343 57 69 0
-343 -57 -69 0
-344 8 14 0
-344 -8 -14 0
-345 8 19 0
-345 -8 -19 0
-346 8 25 0
-346 -8 -25 0
-347 8 32 0
-347 -8 -32 0
-348 8 40 0
-348 -8 -40 0
-349 8 49 0
-349 -8 -49 0
-350 8 59 0
-350 -8 -59 0
-351 8 70 0
-351 -8 -70 0
-352 12 19 0
-352 -12 -19 0
-353 12 25 0
-353 -12 -25 0
-354 12 32 0
-354 -12 -32 0
-355 12 40 0
-355 -12 -40 0
-356 12 49 0
-356 -12 -49 0
-357 12 59 0
-357 -12 -59 0
-358 12 70 0
-358 -12 -70 0
-359 17 25 0
-359 -17 -25 0
-360 17 32 0
-360 -17 -32 0
-361 17 40 0
-361 -17 -40 0
-362 17 49 0
-362 -17 -49 0
-363 17 59 0
-363 -17 -59 0
-364 17 70 0
-364 -17 -70 0
-365 23 32 0
-365 -23 -32 0
-366 23 40 0
-366 -23 -40 0
-367 23 49 0
-367 -23 -49 0
-368 23 59 0
-368 -23 -59 0
-369 23 70 0
-369 -23 -70 0
-370 30 40 0
-370 -30 -40 0
-371 30 49 0
-371 -30 -49 0
-372 30 59 0
-372 -30 -59 0
-373 30 70 0
-373 -30 -70 0
-374 38 49 0
-374 -38 -49 0
-375 38 59 0
-375 -38 -59 0
-376 38 70 0
-376 -38 -70 0
-377 47 59 0
-377 -47 -59 0
-378 47 70 0
-378 -47 -70 0
-379 57 70 0
-379 -57 -70 0
-380 12 20 0
-380 -12 -20 0
-381 12 26 0
-381 -12 -26 0
-382 12 33 0
-382 -12 -33 0
-383 12 41 0
-383 -12 -41 0
-384 12 50 0
-384 -12 -50 0
-385 12 60 0
-385 -12 -60 0
-386 12 71 0
-386 -12 -71 0
-387 17 26 0
-387 -17 -26 0
-388 17 33 0
-388 -17 -33 0
-389 17 41 0
-389 -17 -41 0
-390 17 50 0
-390 -17 -50 0
-391 17 60 0
-391 -17 -60 0
-392 17 71 0
-392 -17 -71 0
-393 23 33 0
-393 -23 -33 0
-394 23 41 0
-394 -23 -41 0
-395 23 50 0
-395 -23 -50 0
-396 23 60 0
-396 -23 -60 0
-397 23 71 0
-397 -23 -71 0
-398 30 41 0
-398 -30 -41 0
-399 30 50 0
-399 -30 -50 0
-400 30 60 0
-400 -30 -60 0
-401 30 71 0
-401 -30 -71 0
-402 38 50 0
-402 -38 -50 0
-403 38 60 0
-403 -38 -60 0
-404 38 71 0
-404 -38 -71 0
-405 47 60 0
-405 -47 -60 0
-406 47 71 0
-406 -47 -71 0
-407 57 71 0
-407 -57 -71 0
-408 17 27 0
-408 -17 -27 0
-409 17 34 0
-409 -17 -34 0
-410 17 42 0
-410 -17 -42 0
-411 17 51 0
-411 -17 -51 0
-412 17 61 0
-412 -17 -61 0
-413 17 72 0
-413 -17 -72 0
-414 23 34 0
-414 -23 -34 0
-415 23 42 0
-415 -23 -42 0
-416 23 51 0
-416 -23 -51 0
-417 23 61 0
-417 -23 -61 0
-418 23 72 0
-418 -23 -72 0
-419 30 42 0
-419 -30 -42 0
-420 30 51 0
-420 -30 -51 0
-421 30 61 0
-421 -30 -61 0
-422 30 72 0
-422 -30 -72 0
-423 38 51 0
-423 -38 -51 0
-424 38 61 0
-424 -38 -61 0
-425 38 72 0
-425 -38 -72 0
-426 47 61 0
-426 -47 -61 0
-427 47 72 0
-427 -47 -72 0
-428 57 72 0
-428 -57 -72 0
-429 23 35 0
-429 -23 -35 0
-430 23 43 0
-430 -23 -43 0
-431 23 52 0
-431 -23 -52 0
-432 23 62 0
-432 -23 -62 0
-433 23 73 0
-433 -23 -73 0
-434 30 43 0
-434 -30 -43 0
-435 30 52 0
-435 -30 -52 0
-436 30 62 0
-436 -30 -62 0
-437 30 73 0
-437 -30 -73 0
-438 38 52 0
-438 -38 -52 0
-439 38 62 0
-439 -38 -62 0
-440 38 73 0
-440 -38 -73 0
-441 47 62 0
-441 -47 -62 0
-442 47 73 0
-442 -47 -73 0
-443 57 73 0
-443 -57 -73 0
-444 30 44 0
-444 -30 -44 0
-445 30 53 0
-445 -30 -53 0
-446 30 63 0
-446 -30 -63 0
-447 30 74 0
-447 -30 -74 0
-448 38 53 0
-448 -38 -53 0
-449 38 63 0
-449 -38 -63 0
-450 38 74 0
-450 -38 -74 0
-451 47 63 0
-451 -47 -63 0
-452 47 74 0
-452 -47 -74 0
-453 57 74 0
-453 -57 -74 0
-454 38 54 0
-454 -38 -54 0
-455 38 64 0
-455 -38 -64 0
-456 38 75 0
-456 -38 -75 0
-457 47 64 0
-457 -47 -64 0
-458 47 75 0
-458 -47 -75 0
-459 57 75 0
-459 -57 -75 0
-460 47 65 0
-460 -47 -65 0
-461 47 76 0
-461 -47 -76 0
-462 57 76 0
-462 -57 -76 0
-463 57 77 0
-463 -57 -77 0
-464 9 14 0
-464 -9 -14 0
-465 9 19 0
-465 -9 -19 0
-466 9 25 0
-466 -9 -25 0
-467 9 32 0
-467 -9 -32 0
-468 9 40 0
-468 -9 -40 0
-469 9 49 0
-469 -9 -49 0
-470 9 59 0
-470 -9 -59 0
-471 9 70 0
-471 -9 -70 0
-472 13 19 0
-472 -13 -19 0
-473 13 25 0
-473 -13 -25 0
-474 13 32 0
-474 -13 -32 0
-475 13 40 0
-475 -13 -40 0
-476 13 49 0
-476 -13 -49 0
-477 13 59 0
-477 -13 -59 0
-478 13 70 0
-478 -13 -70 0
-479 18 25 0
-479 -18 -25 0
-480 18 32 0
-480 -18 -32 0
-481 18 40 0
-481 -18 -40 0
-482 18 49 0
-482 -18 -49 0
-483 18 59 0
-483 -18 -59 0
-484 18 70 0
-484 -18 -70 0
-485 24 32 0
-485 -24 -32 0
-486 24 40 0
-486 -24 -40 0
-487 24 49 0
-487 -24 -49 0
-488 24 59 0
-488 -24 -59 0
-489 24 70 0
-489 -24 -70 0
-490 31 40 0
-490 -31 -40 0
-491 31 49 0
-491 -31 -49 0
-492 31 59 0
-492 -31 -59 0
-493 31 70 0
-493 -31 -70 0
-494 39 49 0
-494 -39 -49 0
-495 39 59 0
-495 -39 -59 0
-496 39 70 0
-496 -39 -70 0
-497 48 59 0
-497 -48 -59 0
-498 48 70 0
-498 -48 -70 0
-499 58 70 0
-499 -58 -70 0
-500 13 20 0
-500 -13 -20 0
-501 13 26 0
-501 -13 -26 0
-502 13 33 0
-502 -13 -33 0
-503 13 41 0
-503 -13 -41 0
-504 13 50 0
-504 -13 -50 0
-505 13 60 0
-505 -13 -60 0
-506 13 71 0
-506 -13 -71 0
-507 18 26 0
-507 -18 -26 0
-508 18 33 0
-508 -18 -33 0
-509 18 41 0
-509 -18 -41 0
-510 18 50 0
-510 -18 -50 0
-511 18 60 0
-511 -18 -60 0
-512 18 71 0
-512 -18 -71 0
-513 24 33 0
-513 -24 -33 0
-514 24 41 0
-514 -24 -41 0
-515 24 50 0
-515 -24 -50 0
-516 24 60 0
-516 -24 -60 0
-517 24 71 0
-517 -24 -71 0
-518 31 41 0
-518 -31 -41 0
-519 31 50 0
-519 -31 -50 0
-520 31 60 0
-520 -31 -60 0
-521 31 71 0
-521 -31 -71 0
-522 39 50 0
-522 -39 -50 0
-523 39 60 0
-523 -39 -60 0
-524 39 71 0
-524 -39 -71 0
-525 48 60 0
-525 -48 -60 0
-526 48 71 0
-526 -48 -71 0
-527 58 71 0
-527 -58 -71 0
-528 18 27 0
-528 -18 -27 0
-529 18 34 0
-529 -18 -34 0
-530 18 42 0
-530 -18 -42 0
-531 18 51 0
-531 -18 -51 0
-532 18 61 0
-532 -18 -61 0
-533 18 72 0
-533 -18 -72 0
-534 24 34 0
-534 -24 -34 0
-535 24 42 0
-535 -24 -42 0
-536 24 51 0
-536 -24 -51 0
-537 24 61 0
-537 -24 -61 0
-538 24 72 0
-538 -24 -72 0
-539 31 42 0
-539 -31 -42 0
-540 31 51 0
-540 -31 -51 0
-541 31 61 0
-541 -31 -61 0
-542 31 72 0
-542 -31 -72 0
-543 39 51 0
-543 -39 -51 0
-544 39 61 0
-544 -39 -61 0
-545 39 72 0
-545 -39 -72 0
-546 48 61 0
-546 -48 -61 0
-547 48 72 0
-547 -48 -72 0
-548 58 72 0
-548 -58 -72 0
-549 24 35 0
-549 -24 -35 0
-550 24 43 0
-550 -24 -43 0
-551 24 52 0
-551 -24 -52 0
-552 24 62 0
-552 -24 -62 0
-553 24 73 0
-553 -24 -73 0
-554 31 43 0
-554 -31 -43 0
-555 31 52 0
-555 -31 -52 0
-556 31 62 0
-556 -31 -62 0
-557 31 73 0
-557 -31 -73 0
-558 39 52 0
-558 -39 -52 0
-559 39 62 0
-559 -39 -62 0
-560 39 73 0
-560 -39 -73 0
-561 48 62 0
-561 -48 -62 0
-562 48 73 0
-562 -48 -73 0
-563 58 73 0
-563 -58 -73 0
-564 31 44 0
-564 -31 -44 0
-565 31 53 0
-565 -31 -53 0
-566 31 63 0
-566 -31 -63 0
-567 31 74 0
-567 -31 -74 0
-568 39 53 0
-568 -39 -53 0
-569 39 63 0
-569 -39 -63 0
-570 39 74 0
-570 -39 -74 0
-571 48 63 0
-571 -48 -63 0
-572 48 74 0
-572 -48 -74 0
-573 58 74 0
-573 -58 -74 0
-574 39 54 0
-574 -39 -54 0
-575 39 64 0
-575 -39 -64 0
-576 39 75 0
-576 -39 -75 0
-577 48 64 0
-577 -48 -64 0
-578 48 75 0
-578 -48 -75 0
-579 58 75 0
-579 -58 -75 0
-580 48 65 0
-580 -48 -65 0
-581 48 76 0
-581 -48 -76 0
-582 58 76 0
-582 -58 -76 0
-583 58 77 0
-583 -58 -77 0
-584 14 20 0
-584 -14 -20 0
-585 14 26 0
-585 -14 -26 0
-586 14 33 0
-586 -14 -33 0
-587 14 41 0
-587 -14 -41 0
-588 14 50 0
-588 -14 -50 0
-589 14 60 0
-589 -14 -60 0
-590 14 71 0
-590 -14 -71 0
-591 19 26 0
-591 -19 -26 0
-592 19 33 0
-592 -19 -33 0
-593 19 41 0
-593 -19 -41 0
-594 19 50 0
-594 -19 -50 0
-595 19 60 0
-595 -19 -60 0
-596 19 71 0
-596 -19 -71 0
-597 25 33 0
-597 -25 -33 0
-598 25 41 0
-598 -25 -41 0
-599 25 50 0
-599 -25 -50 0
-600 25 60 0
-600 -25 -60 0
-601 25 71 0
-601 -25 -71 0
-602 32 41 0
-602 -32 -41 0
-603 32 50 0
-603 -32 -50 0
-604 32 60 0
-604 -32 -60 0
-605 32 71 0
-605 -32 -71 0
-606 40 50 0
-606 -40 -50 0
-607 40 60 0
-607 -40 -60 0
-608 40 71 0
-608 -40 -71 0
-609 49 60 0
-609 -49 -60 0
-610 49 71 0
-610 -49 -71 0
-611 59 71 0
-611 -59 -71 0
-612 19 27 0
-612 -19 -27 0
-613 19 34 0
-613 -19 -34 0
-614 19 42 0
-614 -19 -42 0
-615 19 51 0
-615 -19 -51 0
-616 19 61 0
-616 -19 -61 0
-617 19 72 0
-617 -19 -72 0
-618 25 34 0
-618 -25 -34 0
-619 25 42 0
-619 -25 -42 0
-620 25 51 0
-620 -25 -51 0
-621 25 61 0
-621 -25 -61 0
-622 25 72 0
-622 -25 -72 0
-623 32 42 0
-623 -32 -42 0
-624 32 51 0
-624 -32 -51 0
-625 32 61 0
-625 -32 -61 0
-626 32 72 0
-626 -32 -72 0
-627 40 51 0
-627 -40 -51 0
-628 40 61 0
-628 -40 -61 0
-629 40 72 0
-629 -40 -72 0
-630 49 61 0
-630 -49 -61 0
-631 49 72 0
-631 -49 -72 0
-632 59 72 0
-632 -59 -72 0
-633 25 35 0
-633 -25 -35 0
-634 25 43 0
-634 -25 -43 0
-635 25 52 0
-635 -25 -52 0
-636 25 62 0
-636 -25 -62 0
-637 25 73 0
-637 -25 -73 0
-638 32 43 0
-638 -32 -43 0
-639 32 52 0
-639 -32 -52 0
-640 32 62 0
-640 -32 -62 0
-641 32 73 0
-641 -32 -73 0
-642 40 52 0
-642 -40 -52 0
-643 40 62 0
-643 -40 -62 0
-644 40 73 0
-644 -40 -73 0
-645 49 62 0
-645 -49 -62 0
-646 49 73 0
-646 -49 -73 0
-647 59 73 0
-647 -59 -73 0
-648 32 44 0
-648 -32 -44 0
-649 32 53 0
-649 -32 -53 0
-650 32 63 0
-650 -32 -63 0
-651 32 74 0
-651 -32 -74 0
-652 40 53 0
-652 -40 -53 0
-653 40 63 0
-653 -40 -63 0
-654 40 74 0
-654 -40 -74 0
-655 49 63 0
-655 -49 -63 0
-656 49 74 0
-656 -49 -74 0
-657 59 74 0
-657 -59 -74 0
-658 40 54 0
-658 -40 -54 0
-659 40 64 0
-659 -40 -64 0
-660 40 75 0
-660 -40 -75 0
-661 49 64 0
-661 -49 -64 0
-662 49 75 0
-662 -49 -75 0
-663 59 75 0
-663 -59 -75 0
-664 49 65 0
-664 -49 -65 0
-665 49 76 0
-665 -49 -76 0
-666 59 76 0
-666 -59 -76 0
-667 59 77 0
-667 -59 -77 0
-668 20 27 0
-668 -20 -27 0
-669 20 34 0
-669 -20 -34 0
-670 20 42 0
-670 -20 -42 0
-671 20 51 0
-671 -20 -51 0
-672 20 61 0
-672 -20 -61 0
-673 20 72 0
-673 -20 -72 0
-674 26 34 0
-674 -26 -34 0
-675 26 42 0
-675 -26 -42 0
-676 26 51 0
-676 -26 -51 0
-677 26 61 0
-677 -26 -61 0
-678 26 72 0
-678 -26 -72 0
-679 33 42 0
-679 -33 -42 0
-680 33 51 0
-680 -33 -51 0
-681 33 61 0
-681 -33 -61 0
-682 33 72 0
-682 -33 -72 0
-683 41 51 0
-683 -41 -51 0
-684 41 61 0
-684 -41 -61 0
-685 41 72 0
-685 -41 -72 0
-686 50 61 0
-686 -50 -61 0
-687 50 72 0
-687 -50 -72 0
-688 60 72 0
-688 -60 -72 0
-689 26 35 0
-689 -26 -35 0
-690 26 43 0
-690 -26 -43 0
-691 26 52 0
-691 -26 -52 0
-692 26 62 0
-692 -26 -62 0
-693 26 73 0
-693 -26 -73 0
-694 33 43 0
-694 -33 -43 0
-695 33 52 0
-695 -33 -52 0
-696 33 62 0
-696 -33 -62 0
-697 33 73 0
-697 -33 -73 0
-698 41 52 0
-698 -41 -52 0
-699 41 62 0
-699 -41 -62 0
-700 41 73 0
-700 -41 -73 0
-701 50 62 0
-701 -50 -62 0
-702 50 73 0
-702 -50 -73 0
-703 60 73 0
-703 -60 -73 0
-704 33 44 0
-704 -33 -44 0
-705 33 53 0
-705 -33 -53 0
-706 33 63 0
-706 -33 -63 0
-707 33 74 0
-707 -33 -74 0
-708 41 53 0
-708 -41 -53 0
-709 41 63 0
-709 -41 -63 0
-710 41 74 0
-710 -41 -74 0
-711 50 63 0
-711 -50 -63 0
-712 50 74 0
-712 -50 -74 0
-713 60 74 0
-713 -60 -74 0
-714 41 54 0
-714 -41 -54 0
-715 41 64 0
-715 -41 -64 0
-716 41 75 0
-716 -41 -75 0
-717 50 64 0
-717 -50 -64 0
-718 50 75 0
-718 -50 -75 0
-719 60 75 0
-719 -60 -75 0
-720 50 65 0
-720 -50 -65 0
-721 50 76 0
-721 -50 -76 0
-722 60 76 0
-722 -60 -76 0
-723 60 77 0
-723 -60 -77 0
-724 27 35 0
-724 -27 -35 0
-725 27 43 0
-725 -27 -43 0
-726 27 52 0
-726 -27 -52 0
-727 27 62 0
-727 -27 -62 0
-728 27 73 0
-728 -27 -73 0
-729 34 43 0
-729 -34 -43 0
-730 34 52 0
-730 -34 -52 0
-731 34 62 0
-731 -34 -62 0
-732 34 73 0
-732 -34 -73 0
-733 42 52 0
-733 -42 -52 0
-734 42 62 0
-734 -42 -62 0
-735 42 73 0
-735 -42 -73 0
-736 51 62 0
-736 -51 -62 0
-737 51 73 0
-737 -51 -73 0
-738 61 73 0
-738 -61 -73 0
-739 34 44 0
-739 -34 -44 0
-740 34 53 0
-740 -34 -53 0
-741 34 63 0
-741 -34 -63 0
-742 34 74 0
-742 -34 -74 0
-743 42 53 0
-743 -42 -53 0
-744 42 63 0
-744 -42 -63 0
-745 42 74 0
-745 -42 -74 0
-746 51 63 0
-746 -51 -63 0
-747 51 74 0
-747 -51 -74 0
-748 61 74 0
-748 -61 -74 0
-749 42 54 0
-749 -42 -54 0
-750 42 64 0
-750 -42 -64 0
-751 42 75 0
-751 -42 -75 0
-752 51 64 0
-752 -51 -64 0
-753 51 75 0
-753 -51 -75 0
-754 61 75 0
-754 -61 -75 0
-755 51 65 0
-755 -51 -65 0
-756 51 76 0
-756 -51 -76 0
-757 61 76 0
-757 -61 -76 0
-758 61 77 0
-758 -61 -77 0
-759 35 44 0
-759 -35 -44 0
-760 35 53 0
-760 -35 -53 0
-761 35 63 0
-761 -35 -63 0
-762 35 74 0
-762 -35 -74 0
-763 43 53 0
-763 -43 -53 0
-764 43 63 0
-764 -43 -63 0
-765 43 74 0
-765 -43 -74 0
-766 52 63 0
-766 -52 -63 0
-767 52 74 0
-767 -52 -74 0
-768 62 74 0
-768 -62 -74 0
-769 43 54 0
-769 -43 -54 0
-770 43 64 0
-770 -43 -64 0
-771 43 75 0
-771 -43 -75 0
-772 52 64 0
-772 -52 -64 0
-773 52 75 0
-773 -52 -75 0
-774 62 75 0
-774 -62 -75 0
-775 52 65 0
-775 -52 -65 0
-776 52 76 0
-776 -52 -76 0
-777 62 76 0
-777 -62 -76 0
-778 62 77 0
-778 -62 -77 0
-779 44 54 0
-779 -44 -54 0
-780 44 64 0
-780 -44 -64 0
-781 44 75 0
-781 -44 -75 0
-782 53 64 0
-782 -53 -64 0
-783 53 75 0
-783 -53 -75 0
-784 63 75 0
-784 -63 -75 0
-785 53 65 0
-785 -53 -65 0
-786 53 76 0
-786 -53 -76 0
-787 63 76 0
-787 -63 -76 0
-788 63 77 0
-788 -63 -77 0
-789 54 65 0
-789 -54 -65 0
-790 54 76 0
-790 -54 -76 0
-791 64 76 0
-791 -64 -76 0
-792 64 77 0
-792 -64 -77 0
-793 65 77 0
-793 -65 -77 0
k 491 79 80 81 82 83 84 85 86 87 88 89 90 91 92 93 94 95 96 97 98 99 100 101 102 103 104 105 106 107 108 109 110 111 112 113 114 115 116 117 118 119 120 121 122 123 124 125 126 127 128 129 130 131 132 133 134 135 136 137 138 139 140 141 142 143 144 145 146 147 148 149 150 151 152 153 154 155 156 157 158 159 160 161 162 163 164 165 166 167 168 169 170 171 172 173 174 175 176 177 178 179 180 181 182 183 184 185 186 187 188 189 190 191 192 193 194 195 196 197 198 199 200 201 202 203 204 205 206 207 208 209 210 211 212 213 214 215 216 217 218 219 220 221 222 223 224 225 226 227 228 229 230 231 232 233 234 235 236 237 238 239 240 241 242 243 244 245 246 247 248 249 250 251 252 253 254 255 256 257 258 259 260 261 262 263 264 265 266 267 268 269 270 271 272 273 274 275 276 277 278 279 280 281 282 283 284 285 286 287 288 289 290 291 292 293 294 295 296 297 298 299 300 301 302 303 304 305 306 307 308 309 310 311 312 313 314 315 316 317 318 319 320 321 322 323 324 325 326 327 328 329 330 331 332 333 334 335 336 337 338 339 340 341 342 343 344 345 346 347 348 349 350 351 352 353 354 355 356 357 358 359 360 361 362 363 364 365 366 367 368 369 370 371 372 373 374 375 376 377 378 379 380 381 382 383 384 385 386 387 388 389 390 391 392 393 394 395 396 397 398 399 400 401 402 403 404 405 406 407 408 409 410 411 412 413 414 415 416 417 418 419 420 421 422 423 424 425 426 427 428 429 430 431 432 433 434 435 436 437 438 439 440 441 442 443 444 445 446 447 448 449 450 451 452 453 454 455 456 457 458 459 460 461 462 463 464 465 466 467 468 469 470 471 472 473 474 475 476 477 478 479 480 481 482 483 484 485 486 487 488 489 490 491 492 493 494 495 496 497 498 499 500 501 502 503 504 505 506 507 508 509 510 511 512 513 514 515 516 517 518 519 520 521 522 523 524 525 526 527 528 529 530 531 532 533 534 535 536 537 538 539 540 541 542 543 544 545 546 547 548 549 550 551 552 553 554 555 556 557 558 559 560 561 562 563 564 565 566 567 568 569 570 571 572 573 574 575 576 577 578 579 580 581 582 583 584 585 586 587 588 589 590 591 592 593 594 595 596 597 598 599 600 601 602 603 604 605 606 607 608 609 610 611 612 613 614 615 616 617 618 619 620 621 622 623 624 625 626 627 628 629 630 631 632 633 634 635 636 637 638 639 640 641 642 643 644 645 646 647 648 649 650 651 652 653 654 655 656 657 658 659 660 661 662 663 664 665 666 667 668 669 670 671 672 673 674 675 676 677 678 679 680 681 682 683 684 685 686 687 688 689 690 691 692 693 694 695 696 697 698 699 700 701 702 703 704 705 706 707 708 709 710 711 712 713 714 715 716 717 718 719 720 721 722 723 724 725 726 727 728 729 730 731 732 733 734 735 736 737 738 739 740 741 742 743 744 745 746 747 748 749 750 751 752 753 754 755 756 757 758 759 760 761 762 763 764 765 766 767 768 769 770 771 772 773 774 775 776 777 778 779 780 781 782 783 784 785 786 787 788 789 790 791 792 793 0
